7 160 186 23 189 14 11 105 175 93 170 75 42 163 110 27 8 49 127 38 155 174 29 24 123 40 77 31 193 9 156 169 56 150 87 3 41 60 36 117 108 32 104 18 5 185 190 84 153 43 183 28 112 95 62 96 44 17 45 109 54 195 57 81 19 172 180 191 154 55 198 88 72 34 148 139 10 125 168 165 177 179 73 51 94 137 136 39 188 158 130 157 149 181 142 141 48 106 101 151 140 176 85 66 159 152 78 50 63 67 122 133 2 68 65 107 135 64 126 91 167 86 99 116 143 35 6 166 33 115 187 192 1 0 128 144 25 70 113 119 178 82 61 131 182 30 111 52 124 46 26 76 90 4 15 197 97 132 184 89 21 22 69 74 114 196 199 13 129 171 103 134 20 145 53 58 164 16 120 146 100 37 162 118 59 79 92 102 138 173 12 161 98 147 71 80 47 121 83 194 

